c File: flat50_3_0.col
c
c SOURCE: Joseph Culberson (joe@cs.ualberta.ca)
c DESCRIPTION: Quasi-random coloring problem
c              generated with flatness = 0
c                             probability = 0.139
c                             known coloring = 3
c                             random seed = 1487
c              Creation Date:  Tue Jun  9 12:10:32 1998
c Maximum degree = 8 Minimum degree = 1
c p edge 50 115
c cnf created by edge2cnf
p cnf 150 545
-1 -2 0
-1 -3 0
-2 -3 0
1 2 3 0
-4 -5 0
-4 -6 0
-5 -6 0
4 5 6 0
-7 -8 0
-7 -9 0
-8 -9 0
7 8 9 0
-10 -11 0
-10 -12 0
-11 -12 0
10 11 12 0
-13 -14 0
-13 -15 0
-14 -15 0
13 14 15 0
-16 -17 0
-16 -18 0
-17 -18 0
16 17 18 0
-19 -20 0
-19 -21 0
-20 -21 0
19 20 21 0
-22 -23 0
-22 -24 0
-23 -24 0
22 23 24 0
-25 -26 0
-25 -27 0
-26 -27 0
25 26 27 0
-28 -29 0
-28 -30 0
-29 -30 0
28 29 30 0
-31 -32 0
-31 -33 0
-32 -33 0
31 32 33 0
-34 -35 0
-34 -36 0
-35 -36 0
34 35 36 0
-37 -38 0
-37 -39 0
-38 -39 0
37 38 39 0
-40 -41 0
-40 -42 0
-41 -42 0
40 41 42 0
-43 -44 0
-43 -45 0
-44 -45 0
43 44 45 0
-46 -47 0
-46 -48 0
-47 -48 0
46 47 48 0
-49 -50 0
-49 -51 0
-50 -51 0
49 50 51 0
-52 -53 0
-52 -54 0
-53 -54 0
52 53 54 0
-55 -56 0
-55 -57 0
-56 -57 0
55 56 57 0
-58 -59 0
-58 -60 0
-59 -60 0
58 59 60 0
-61 -62 0
-61 -63 0
-62 -63 0
61 62 63 0
-64 -65 0
-64 -66 0
-65 -66 0
64 65 66 0
-67 -68 0
-67 -69 0
-68 -69 0
67 68 69 0
-70 -71 0
-70 -72 0
-71 -72 0
70 71 72 0
-73 -74 0
-73 -75 0
-74 -75 0
73 74 75 0
-76 -77 0
-76 -78 0
-77 -78 0
76 77 78 0
-79 -80 0
-79 -81 0
-80 -81 0
79 80 81 0
-82 -83 0
-82 -84 0
-83 -84 0
82 83 84 0
-85 -86 0
-85 -87 0
-86 -87 0
85 86 87 0
-88 -89 0
-88 -90 0
-89 -90 0
88 89 90 0
-91 -92 0
-91 -93 0
-92 -93 0
91 92 93 0
-94 -95 0
-94 -96 0
-95 -96 0
94 95 96 0
-97 -98 0
-97 -99 0
-98 -99 0
97 98 99 0
-100 -101 0
-100 -102 0
-101 -102 0
100 101 102 0
-103 -104 0
-103 -105 0
-104 -105 0
103 104 105 0
-106 -107 0
-106 -108 0
-107 -108 0
106 107 108 0
-109 -110 0
-109 -111 0
-110 -111 0
109 110 111 0
-112 -113 0
-112 -114 0
-113 -114 0
112 113 114 0
-115 -116 0
-115 -117 0
-116 -117 0
115 116 117 0
-118 -119 0
-118 -120 0
-119 -120 0
118 119 120 0
-121 -122 0
-121 -123 0
-122 -123 0
121 122 123 0
-124 -125 0
-124 -126 0
-125 -126 0
124 125 126 0
-127 -128 0
-127 -129 0
-128 -129 0
127 128 129 0
-130 -131 0
-130 -132 0
-131 -132 0
130 131 132 0
-133 -134 0
-133 -135 0
-134 -135 0
133 134 135 0
-136 -137 0
-136 -138 0
-137 -138 0
136 137 138 0
-139 -140 0
-139 -141 0
-140 -141 0
139 140 141 0
-142 -143 0
-142 -144 0
-143 -144 0
142 143 144 0
-145 -146 0
-145 -147 0
-146 -147 0
145 146 147 0
-148 -149 0
-148 -150 0
-149 -150 0
148 149 150 0
-55 -1 0
-56 -2 0
-57 -3 0
-79 -1 0
-80 -2 0
-81 -3 0
-88 -1 0
-89 -2 0
-90 -3 0
-97 -1 0
-98 -2 0
-99 -3 0
-109 -1 0
-110 -2 0
-111 -3 0
-127 -4 0
-128 -5 0
-129 -6 0
-133 -4 0
-134 -5 0
-135 -6 0
-76 -7 0
-77 -8 0
-78 -9 0
-79 -7 0
-80 -8 0
-81 -9 0
-94 -7 0
-95 -8 0
-96 -9 0
-97 -7 0
-98 -8 0
-99 -9 0
-55 -10 0
-56 -11 0
-57 -12 0
-61 -10 0
-62 -11 0
-63 -12 0
-67 -10 0
-68 -11 0
-69 -12 0
-79 -10 0
-80 -11 0
-81 -12 0
-112 -10 0
-113 -11 0
-114 -12 0
-118 -10 0
-119 -11 0
-120 -12 0
-145 -10 0
-146 -11 0
-147 -12 0
-148 -10 0
-149 -11 0
-150 -12 0
-73 -13 0
-74 -14 0
-75 -15 0
-106 -13 0
-107 -14 0
-108 -15 0
-115 -13 0
-116 -14 0
-117 -15 0
-118 -13 0
-119 -14 0
-120 -15 0
-61 -16 0
-62 -17 0
-63 -18 0
-106 -16 0
-107 -17 0
-108 -18 0
-118 -16 0
-119 -17 0
-120 -18 0
-136 -16 0
-137 -17 0
-138 -18 0
-52 -19 0
-53 -20 0
-54 -21 0
-76 -19 0
-77 -20 0
-78 -21 0
-85 -19 0
-86 -20 0
-87 -21 0
-136 -19 0
-137 -20 0
-138 -21 0
-142 -19 0
-143 -20 0
-144 -21 0
-76 -22 0
-77 -23 0
-78 -24 0
-97 -22 0
-98 -23 0
-99 -24 0
-112 -22 0
-113 -23 0
-114 -24 0
-142 -22 0
-143 -23 0
-144 -24 0
-145 -22 0
-146 -23 0
-147 -24 0
-70 -25 0
-71 -26 0
-72 -27 0
-94 -25 0
-95 -26 0
-96 -27 0
-112 -25 0
-113 -26 0
-114 -27 0
-124 -25 0
-125 -26 0
-126 -27 0
-139 -25 0
-140 -26 0
-141 -27 0
-52 -28 0
-53 -29 0
-54 -30 0
-64 -28 0
-65 -29 0
-66 -30 0
-88 -28 0
-89 -29 0
-90 -30 0
-139 -28 0
-140 -29 0
-141 -30 0
-55 -31 0
-56 -32 0
-57 -33 0
-58 -31 0
-59 -32 0
-60 -33 0
-94 -31 0
-95 -32 0
-96 -33 0
-112 -31 0
-113 -32 0
-114 -33 0
-145 -31 0
-146 -32 0
-147 -33 0
-52 -34 0
-53 -35 0
-54 -36 0
-70 -34 0
-71 -35 0
-72 -36 0
-73 -34 0
-74 -35 0
-75 -36 0
-76 -34 0
-77 -35 0
-78 -36 0
-106 -34 0
-107 -35 0
-108 -36 0
-52 -37 0
-53 -38 0
-54 -39 0
-58 -37 0
-59 -38 0
-60 -39 0
-79 -37 0
-80 -38 0
-81 -39 0
-106 -37 0
-107 -38 0
-108 -39 0
-118 -37 0
-119 -38 0
-120 -39 0
-139 -37 0
-140 -38 0
-141 -39 0
-145 -37 0
-146 -38 0
-147 -39 0
-85 -40 0
-86 -41 0
-87 -42 0
-109 -40 0
-110 -41 0
-111 -42 0
-148 -40 0
-149 -41 0
-150 -42 0
-103 -43 0
-104 -44 0
-105 -45 0
-142 -43 0
-143 -44 0
-144 -45 0
-148 -43 0
-149 -44 0
-150 -45 0
-58 -46 0
-59 -47 0
-60 -48 0
-67 -46 0
-68 -47 0
-69 -48 0
-94 -46 0
-95 -47 0
-96 -48 0
-136 -46 0
-137 -47 0
-138 -48 0
-139 -46 0
-140 -47 0
-141 -48 0
-85 -49 0
-86 -50 0
-87 -51 0
-97 -49 0
-98 -50 0
-99 -51 0
-130 -49 0
-131 -50 0
-132 -51 0
-109 -52 0
-110 -53 0
-111 -54 0
-136 -52 0
-137 -53 0
-138 -54 0
-145 -52 0
-146 -53 0
-147 -54 0
-109 -55 0
-110 -56 0
-111 -57 0
-112 -55 0
-113 -56 0
-114 -57 0
-121 -55 0
-122 -56 0
-123 -57 0
-136 -55 0
-137 -56 0
-138 -57 0
-148 -58 0
-149 -59 0
-150 -60 0
-136 -61 0
-137 -62 0
-138 -63 0
-130 -64 0
-131 -65 0
-132 -66 0
-136 -64 0
-137 -65 0
-138 -66 0
-142 -67 0
-143 -68 0
-144 -69 0
-109 -70 0
-110 -71 0
-111 -72 0
-112 -73 0
-113 -74 0
-114 -75 0
-145 -73 0
-146 -74 0
-147 -75 0
-115 -76 0
-116 -77 0
-117 -78 0
-148 -76 0
-149 -77 0
-150 -78 0
-103 -79 0
-104 -80 0
-105 -81 0
-139 -79 0
-140 -80 0
-141 -81 0
-106 -82 0
-107 -83 0
-108 -84 0
-130 -82 0
-131 -83 0
-132 -84 0
-139 -82 0
-140 -83 0
-141 -84 0
-145 -82 0
-146 -83 0
-147 -84 0
-106 -85 0
-107 -86 0
-108 -87 0
-103 -88 0
-104 -89 0
-105 -90 0
-127 -88 0
-128 -89 0
-129 -90 0
-112 -91 0
-113 -92 0
-114 -93 0
-118 -91 0
-119 -92 0
-120 -93 0
-121 -91 0
-122 -92 0
-123 -93 0
-106 -94 0
-107 -95 0
-108 -96 0
-112 -94 0
-113 -95 0
-114 -96 0
-139 -94 0
-140 -95 0
-141 -96 0
-106 -97 0
-107 -98 0
-108 -99 0
-121 -97 0
-122 -98 0
-123 -99 0
-142 -97 0
-143 -98 0
-144 -99 0
-148 -97 0
-149 -98 0
-150 -99 0
-109 -100 0
-110 -101 0
-111 -102 0
-133 -100 0
-134 -101 0
-135 -102 0
